500
1000
800
799
797
796
791
790
788
785
784
783
782
780
780
779
779
777
776
774
774
774
774
772
772
772
770
769
769
765
765
763
763
763
761
761
759
758
758
757
756
755
754
751
750
747
743
742
742
740
738
734
734
733
728
725
723
722
722
721
719
718
717
714
713
711
711
709
708
706
706
704
702
702
702
701
701
698
698
698
697
696
694
694
693
692
690
690
689
686
686
685
685
684
681
678
677
676
675
674
673
672
671
671
670
669
669
669
669
668
668
666
666
665
665
664
662
662
659
650
649
649
647
647
646
644
639
637
636
635
635
634
633
631
630
629
628
626
626
626
626
625
625
622
618
618
618
617
617
616
613
610
609
608
608
606
603
601
601
601
601
600
598
598
596
595
591
591
590
589
582
580
578
576
574
572
569
567
566
564
562
562
561
559
559
558
555
548
547
546
546
545
543
543
541
540
537
537
536
535
533
531
531
530
529
529
527
527
527
524
524
523
523
522
522
521
520
520
518
517
516
516
515
515
514
514
513
511
511
510
506
506
504
504
504
503
501
498
498
498
496
492
480
480
478
478
477
476
473
470
465
462
462
454
453
453
453
450
450
446
444
444
441
440
436
435
435
432
431
431
430
430
430
430
425
424
422
422
420
420
420
418
418
417
415
413
413
410
410
406
406
405
404
402
401
401
399
398
396
393
392
387
386
384
383
381
380
380
376
376
376
375
374
372
372
371
368
365
364
362
359
358
358
356
355
355
355
354
353
353
351
346
346
343
342
342
341
335
333
333
331
328
327
325
325
325
325
325
322
322
320
320
319
316
315
315
310
310
308
308
304
303
303
303
301
300
298
298
296
296
294
294
291
291
290
284
282
281
280
277
276
275
274
274
272
271
267
263
262
261
261
260
259
259
255
254
253
253
252
250
242
241
238
238
237
237
233
233
227
227
227
225
225
225
224
224
221
220
219
219
218
216
216
215
213
213
212
210
208
208
207
206
206
205
202
200
200
196
195
190
189
187
187
187
184
181
180
178
177
176
175
168
166
164
164
163
163
162
161
160
159
158
157
150
149
149
148
147
147
144
140
136
133
129
129
126
124
123
123
121
118
117
116
115
115
114
113
112
112
112
111
110
110
107
107
104
103
103
103
101
100
100
